(set-logic HORN)
(declare-fun state (Int Int Int (Array Int Int) Int Int Int (Array Int Int) Bool Int Int Int (Array Int Int)) Bool)
(assert (forall ((|B_7| Int) (|E_7| Int) (|A_7| Int) (|G_7| (Array Int Int)) (|D_7| Int) (|C_7| Int) (|F_7| Int) (|H_7| (Array Int Int)) (|.loc.28| Bool) (|G_2| Int) (|E_2| Int) (|H_2| Int) (|D_2| (Array Int Int)) (|.loc.37| Bool) (|.y.36| (Array Int Int)) (|.y.33| Int) (|.y.32| (Array Int Int)) (|.y.29| Int) (|.y.31| Int) (|.y.34| Int) (|.y.30| Int) (|.y.35| Int) (|.xiv.1| Int) (|.xiv.2| Int) (|.xiv.3| Int) (|.xiv.4| (Array Int Int))) (=> (or (and (and (and (and (and (and (and (and (and (not (= B_7 (select G_7 (+ (+ A_7 E_2) (- 1))))) (not .loc.28)) (not (= D_7 (select H_7 (+ (+ A_7 E_2) (- 1)))))) (= (+ E_7 (+ (* (- 1) A_7) (* (- 1) E_2))) (- 1))) (= (+ A_7 (+ (* (- 1) F_7) E_2)) 1)) (= (+ A_7 (* (- 1) C_7)) 1)) (not (<= (ite (<= 0 A_7) A_7 (* (- 1) A_7)) 0))) (= G_7 H_7)) (= B_7 D_7)) (not (= A_7 0))) (and .loc.28 (or (and (and (<= (ite (<= 0 H_2) H_2 (* (- 1) H_2)) 0) (not (= H_2 0))) (not (= G_2 (select D_2 (+ (+ E_2 H_2) (- 1)))))) (and (and (<= (ite (<= 0 G_2) G_2 (* (- 1) G_2)) 0) (not (= (+ G_2 E_2) 1))) (not (= G_2 0)))))) (state |B_7| |E_7| |A_7| |G_7| |D_7| |C_7| |F_7| |H_7| |.loc.28| |G_2| |E_2| |H_2| |D_2|))))
(assert (forall ((|B_7| Int) (|E_7| Int) (|A_7| Int) (|G_7| (Array Int Int)) (|D_7| Int) (|C_7| Int) (|F_7| Int) (|H_7| (Array Int Int)) (|.loc.28| Bool) (|G_2| Int) (|E_2| Int) (|H_2| Int) (|D_2| (Array Int Int)) (|.loc.37| Bool) (|.y.36| (Array Int Int)) (|.y.33| Int) (|.y.32| (Array Int Int)) (|.y.29| Int) (|.y.31| Int) (|.y.34| Int) (|.y.30| Int) (|.y.35| Int) (|.xiv.1| Int) (|.xiv.2| Int) (|.xiv.3| Int) (|.xiv.4| (Array Int Int))) (=> (and (state |B_7| |E_7| |A_7| |G_7| |D_7| |C_7| |F_7| |H_7| |.loc.28| |G_2| |E_2| |H_2| |D_2|) (let ((.def_96 (= A_7 1))) (let ((.def_97 (not .def_96))) (let ((.def_100 (= B_7 (select G_7 (+ E_7 (- 1)))))) (let ((.def_104 (not (= G_7 H_7)))) (let ((.def_108 (<= (ite (<= 0 C_7) C_7 (* (- 1) C_7)) 0))) (let ((.def_109 (not .def_108))) (let ((.def_112 (= D_7 (select H_7 (+ F_7 (- 1)))))) (let ((.def_134 (not .def_100))) (let ((.def_136 (not .def_112))) (let ((.def_138 (not .loc.37))) (let ((.def_141 (= H_7 .y.36))) (let ((.def_144 (= D_7 .y.33))) (let ((.def_147 (= G_7 .y.32))) (let ((.def_150 (= B_7 .y.29))) (let ((.def_155 (= (+ A_7 (* (- 1) .y.31)) 1))) (let ((.def_160 (= (+ C_7 (* (- 1) .y.34)) 1))) (let ((.def_165 (= (+ E_7 (* (- 1) .y.30)) 1))) (let ((.def_170 (= (+ F_7 (* (- 1) .y.35)) 1))) (and (not .loc.28) (or (or (or (and (or (or (and (and .def_97 .def_100) (or (and (or (not (= E_7 F_7)) .def_104) (and .def_109 .def_112)) (and .def_108 (or .def_104 (not (= E_7 1)))))) (and (or .def_104 (not (= F_7 1))) (and .def_109 (and .def_96 .def_112)))) (and .def_104 (and .def_96 .def_108))) .loc.37) (and (and (and (and (and (and (and (and (and (and (and (and .def_97 .def_109) .def_134) .def_136) .def_138) .def_141) .def_144) .def_147) .def_150) .def_155) .def_160) .def_165) .def_170)) (and (or .def_108 .def_112) (and (= C_7 .y.34) (and (= F_7 .y.35) (and .def_165 (and .def_155 (and .def_150 (and .def_147 (and .def_144 (and .def_141 (and .def_138 (and .def_97 .def_134)))))))))))) (and (or .def_96 .def_100) (and (= E_7 .y.30) (and (= A_7 .y.31) (and .def_170 (and .def_160 (and .def_150 (and .def_147 (and .def_144 (and .def_141 (and .def_138 (and .def_109 .def_136)))))))))))))))))))))))))))))))) (state |.y.29| |.y.30| |.y.31| |.y.32| |.y.33| |.y.34| |.y.35| |.y.36| |.loc.37| |.xiv.1| |.xiv.2| |.xiv.3| |.xiv.4|))))
(assert (forall ((|B_7| Int) (|E_7| Int) (|A_7| Int) (|G_7| (Array Int Int)) (|D_7| Int) (|C_7| Int) (|F_7| Int) (|H_7| (Array Int Int)) (|.loc.28| Bool) (|G_2| Int) (|E_2| Int) (|H_2| Int) (|D_2| (Array Int Int)) (|.loc.37| Bool) (|.y.36| (Array Int Int)) (|.y.33| Int) (|.y.32| (Array Int Int)) (|.y.29| Int) (|.y.31| Int) (|.y.34| Int) (|.y.30| Int) (|.y.35| Int) (|.xiv.1| Int) (|.xiv.2| Int) (|.xiv.3| Int) (|.xiv.4| (Array Int Int))) (=> (state |B_7| |E_7| |A_7| |G_7| |D_7| |C_7| |F_7| |H_7| |.loc.28| |G_2| |E_2| |H_2| |D_2|) (not .loc.28))))
(check-sat)
